Version identifier: 22.1.0.0 | 2022-03-09 | 1a383f8ce
CPXPARAM_Read_DataCheck                          1
Tried aggregator 3 times.
MIP Presolve eliminated 3516 rows and 919 columns.
MIP Presolve modified 96 coefficients.
Aggregator did 2796 substitutions.
Reduced MIP has 834 rows, 2897 columns, and 6604 nonzeros.
Reduced MIP has 2885 binaries, 12 generals, 0 SOSs, and 0 indicators.
Presolve time = 0.02 sec. (21.00 ticks)
Probing fixed 24 vars, tightened 0 bounds.
Probing time = 0.01 sec. (4.25 ticks)
Tried aggregator 2 times.
Detecting symmetries...
MIP Presolve eliminated 30 rows and 40 columns.
Aggregator did 10 substitutions.
Reduced MIP has 794 rows, 2847 columns, and 6494 nonzeros.
Reduced MIP has 2835 binaries, 12 generals, 0 SOSs, and 0 indicators.
Presolve time = 0.01 sec. (7.20 ticks)
Probing time = 0.00 sec. (2.62 ticks)
Clique table members: 6298.
MIP emphasis: balance optimality and feasibility.
MIP search method: dynamic search.
Parallel mode: deterministic, using up to 8 threads.
Root relaxation solution time = 0.07 sec. (16.02 ticks)

        Nodes                                         Cuts/
   Node  Left     Objective  IInf  Best Integer    Best Bound    ItCnt     Gap

      0     0       12.3640   571                     12.3640      773         
      0     0       18.0000   345                    Cuts: 48     1327         
      0     0       18.0000   347                ZeroHalf: 24     1474         
*     0+    0                           19.0000       18.0000             5.26%
      0     0        cutoff             19.0000                   1474    0.00%
Elapsed time = 1.20 sec. (888.46 ticks, tree = 0.01 MB, solutions = 1)

Clique cuts applied:  2
Zero-half cuts applied:  5
Gomory fractional cuts applied:  6

Root node processing (before b&c):
  Real time             =    1.20 sec. (888.69 ticks)
Parallel b&c, 8 threads:
  Real time             =    0.00 sec. (0.00 ticks)
  Sync time (average)   =    0.00 sec.
  Wait time (average)   =    0.00 sec.
                          ------------
Total (root+branch&cut) =    1.20 sec. (888.69 ticks)
